p edge 604 579
e 1 2
e 1 3
e 1 4
e 1 5
e 1 6
e 1 7
e 1 8
e 1 9
e 1 10
e 1 11
e 1 12
e 1 13
e 1 14
e 1 15
e 1 16
e 1 17
e 1 18
e 1 19
e 1 20
e 1 21
e 1 22
e 1 23
e 1 24
e 25 26
e 25 27
e 25 28
e 25 29
e 25 30
e 25 31
e 25 32
e 25 33
e 25 34
e 25 35
e 25 36
e 25 37
e 25 38
e 25 39
e 25 40
e 25 41
e 25 42
e 25 43
e 25 44
e 25 45
e 25 46
e 25 47
e 25 48
e 25 49
e 25 50
e 25 51
e 25 52
e 25 53
e 25 54
e 25 55
e 25 56
e 25 57
e 25 58
e 25 59
e 25 60
e 25 61
e 25 62
e 25 63
e 25 64
e 65 66
e 65 67
e 65 68
e 65 69
e 65 70
e 65 71
e 65 72
e 65 73
e 65 74
e 65 75
e 65 76
e 65 77
e 65 78
e 65 79
e 65 80
e 65 81
e 65 82
e 65 83
e 65 84
e 65 85
e 65 86
e 65 87
e 65 88
e 65 89
e 65 90
e 65 91
e 65 92
e 65 93
e 65 94
e 65 95
e 65 96
e 65 97
e 65 98
e 65 99
e 65 100
e 65 101
e 65 102
e 65 103
e 65 104
e 105 106
e 105 107
e 105 108
e 105 109
e 105 110
e 105 111
e 105 112
e 105 113
e 105 114
e 105 115
e 105 116
e 105 117
e 105 118
e 105 119
e 105 120
e 105 121
e 105 122
e 105 123
e 105 124
e 105 125
e 105 126
e 105 127
e 105 128
e 105 129
e 105 130
e 105 131
e 105 132
e 105 133
e 105 134
e 105 135
e 105 136
e 105 137
e 105 138
e 105 139
e 105 140
e 105 141
e 105 142
e 105 143
e 144 145
e 144 146
e 144 147
e 144 148
e 144 149
e 144 150
e 144 151
e 144 152
e 144 153
e 144 154
e 144 155
e 144 156
e 144 157
e 144 158
e 144 159
e 144 160
e 144 161
e 144 162
e 144 163
e 144 164
e 165 166
e 165 167
e 165 168
e 165 169
e 165 170
e 165 171
e 165 172
e 165 173
e 165 174
e 165 175
e 165 176
e 165 177
e 165 178
e 165 179
e 165 180
e 165 181
e 182 183
e 182 184
e 182 185
e 182 186
e 182 187
e 182 188
e 182 189
e 182 190
e 182 191
e 182 192
e 182 193
e 182 194
e 182 195
e 182 196
e 182 197
e 182 198
e 182 199
e 182 200
e 182 201
e 182 202
e 203 204
e 203 205
e 203 206
e 203 207
e 203 208
e 203 209
e 203 210
e 203 211
e 203 212
e 203 213
e 203 214
e 203 215
e 203 216
e 203 217
e 203 218
e 203 219
e 203 220
e 203 221
e 203 222
e 203 223
e 203 224
e 203 225
e 203 226
e 203 227
e 203 228
e 203 229
e 203 230
e 231 232
e 231 233
e 231 234
e 231 235
e 231 236
e 231 237
e 231 238
e 231 239
e 231 240
e 231 241
e 231 242
e 231 243
e 231 244
e 231 245
e 231 246
e 231 247
e 231 248
e 231 249
e 231 250
e 231 251
e 252 253
e 252 254
e 252 255
e 252 256
e 252 257
e 252 258
e 252 259
e 252 260
e 252 261
e 252 262
e 252 263
e 252 264
e 252 265
e 252 266
e 252 267
e 252 268
e 252 269
e 252 270
e 252 271
e 272 273
e 272 274
e 272 275
e 272 276
e 272 277
e 272 278
e 272 279
e 272 280
e 272 281
e 272 282
e 272 283
e 272 284
e 272 285
e 272 286
e 272 287
e 272 288
e 272 289
e 272 290
e 272 291
e 272 292
e 272 293
e 272 294
e 295 296
e 295 297
e 295 298
e 295 299
e 295 300
e 295 301
e 295 302
e 295 303
e 295 304
e 295 305
e 295 306
e 295 307
e 295 308
e 295 309
e 295 310
e 295 311
e 295 312
e 295 313
e 295 314
e 295 315
e 295 316
e 295 317
e 318 319
e 318 320
e 318 321
e 318 322
e 318 323
e 318 324
e 318 325
e 318 326
e 318 327
e 318 328
e 318 329
e 318 330
e 318 331
e 318 332
e 318 333
e 318 334
e 318 335
e 318 336
e 318 337
e 318 338
e 318 339
e 318 340
e 318 341
e 318 342
e 343 344
e 343 345
e 343 346
e 343 347
e 343 348
e 343 349
e 343 350
e 343 351
e 343 352
e 343 353
e 343 354
e 343 355
e 343 356
e 343 357
e 358 359
e 358 360
e 358 361
e 358 362
e 358 363
e 358 364
e 358 365
e 358 366
e 358 367
e 358 368
e 358 369
e 358 370
e 358 371
e 358 372
e 358 373
e 358 374
e 358 375
e 376 377
e 376 378
e 376 379
e 376 380
e 376 381
e 376 382
e 376 383
e 376 384
e 376 385
e 376 386
e 376 387
e 376 388
e 376 389
e 376 390
e 376 391
e 376 392
e 376 393
e 376 394
e 376 395
e 376 396
e 376 397
e 376 398
e 376 399
e 400 401
e 400 402
e 400 403
e 400 404
e 400 405
e 400 406
e 400 407
e 400 408
e 400 409
e 400 410
e 400 411
e 400 412
e 400 413
e 400 414
e 400 415
e 400 416
e 400 417
e 400 418
e 400 419
e 400 420
e 400 421
e 422 423
e 422 424
e 422 425
e 422 426
e 422 427
e 422 428
e 422 429
e 422 430
e 422 431
e 422 432
e 422 433
e 422 434
e 422 435
e 422 436
e 422 437
e 422 438
e 422 439
e 422 440
e 422 441
e 422 442
e 422 443
e 422 444
e 422 445
e 422 446
e 422 447
e 448 449
e 448 450
e 448 451
e 448 452
e 448 453
e 448 454
e 448 455
e 448 456
e 448 457
e 448 458
e 448 459
e 448 460
e 448 461
e 448 462
e 448 463
e 448 464
e 448 465
e 448 466
e 448 467
e 448 468
e 448 469
e 448 470
e 471 472
e 471 473
e 471 474
e 471 475
e 471 476
e 471 477
e 471 478
e 471 479
e 471 480
e 471 481
e 471 482
e 471 483
e 471 484
e 471 485
e 471 486
e 471 487
e 471 488
e 471 489
e 471 490
e 471 491
e 471 492
e 471 493
e 471 494
e 471 495
e 496 497
e 496 498
e 496 499
e 496 500
e 496 501
e 496 502
e 496 503
e 496 504
e 496 505
e 496 506
e 496 507
e 496 508
e 496 509
e 496 510
e 496 511
e 496 512
e 496 513
e 496 514
e 496 515
e 496 516
e 496 517
e 496 518
e 496 519
e 496 520
e 496 521
e 496 522
e 496 523
e 524 525
e 524 526
e 524 527
e 524 528
e 524 529
e 524 530
e 524 531
e 524 532
e 524 533
e 524 534
e 524 535
e 524 536
e 524 537
e 524 538
e 524 539
e 524 540
e 524 541
e 524 542
e 524 543
e 524 544
e 524 545
e 524 546
e 524 547
e 524 548
e 524 549
e 524 550
e 524 551
e 524 552
e 553 554
e 553 555
e 553 556
e 553 557
e 553 558
e 553 559
e 553 560
e 553 561
e 553 562
e 553 563
e 553 564
e 553 565
e 553 566
e 553 567
e 568 569
e 568 570
e 568 571
e 568 572
e 568 573
e 568 574
e 568 575
e 568 576
e 568 577
e 568 578
e 568 579
e 568 580
e 568 581
e 568 582
e 568 583
e 584 585
e 584 586
e 584 587
e 584 588
e 584 589
e 584 590
e 584 591
e 584 592
e 584 593
e 584 594
e 584 595
e 584 596
e 584 597
e 584 598
e 584 599
e 584 600
e 584 601
e 584 602
e 584 603
e 584 604
